
Gurobi 13.0.1 (linux64) logging started Sat Mar 21 12:04:30 2026

Set parameter LogFile to value "logs_fast/75B_6F_deterministic_2026-03-21_12h03m24s.log"
Set parameter MIPGap to value 0.005
Set parameter OptimalityTol to value 0.005
Gurobi Optimizer version 13.0.1 build v13.0.1rc0 (linux64 - "openSUSE Tumbleweed")

CPU model: Intel(R) Core(TM) i7-10610U CPU @ 1.80GHz, instruction set [SSE2|AVX|AVX2]
Thread count: 4 physical cores, 8 logical processors, using up to 8 threads

Non-default parameters:
TimeLimit  3600
SoftMemLimit  12
MIPGap  0.005
OptimalityTol  0.005

Optimize a model with 89575 rows, 1732585 columns and 5250787 nonzeros (Max)
Model fingerprint: 0x908cfbc5
Model has 1675945 linear objective coefficients
Variable types: 22585 continuous, 1710000 integer (1710000 binary)
Coefficient statistics:
  Matrix range     [3e-05, 1e+05]
  Objective range  [3e+01, 3e+03]
  Bounds range     [1e+00, 1e+05]
  RHS range        [1e-02, 1e+05]

Presolve removed 45926 rows and 1252252 columns (presolve time = 5s)...
Presolve removed 45926 rows and 1252232 columns
Presolve time: 8.62s
Presolved: 43649 rows, 480353 columns, 1494845 nonzeros
Variable types: 10955 continuous, 469398 integer (469398 binary)
Found heuristic solution: objective -3.70642e+08
Deterministic concurrent LP optimizer: primal simplex, dual simplex, and barrier
Showing barrier log only...

Root barrier log...

Ordering time: 1.26s

Barrier statistics:
 AA' NZ     : 7.293e+05
 Factor NZ  : 4.941e+06 (roughly 250 MB of memory)
 Factor Ops : 9.881e+08 (less than 1 second per iteration)
 Threads    : 2

                  Objective                Residual
Iter       Primal          Dual         Primal    Dual     Compl     Time
   0  -2.70917727e+11  3.03215130e+09  4.11e+06 2.48e+03  2.52e+06    13s
   1  -1.12532051e+11  3.79271183e+09  1.71e+06 8.12e+01  1.08e+06    14s
   2  -1.78629609e+10  3.84349218e+09  2.76e+05 4.85e+00  1.79e+05    14s
   3  -1.13836834e+10  3.57042782e+09  1.78e+05 1.34e-10  1.18e+05    14s
   4  -5.68174168e+09  3.35600113e+09  9.13e+04 1.27e-10  6.22e+04    15s
   5  -3.39566523e+09  2.97412065e+09  5.67e+04 1.08e-10  3.87e+04    15s
   6  -1.05466833e+09  2.49394127e+09  2.13e+04 9.97e-11  1.53e+04    15s
   7   3.38569424e+08  1.59665312e+09  1.19e+02 1.34e-10  1.34e+03    15s
   8   3.44543129e+08  3.57338874e+08  2.72e-10 9.82e-11  1.30e+01    16s
   9   3.44606901e+08  3.45865733e+08  7.55e-10 1.78e-10  1.28e+00    16s
  10   3.44749626e+08  3.45224905e+08  3.91e-10 1.04e-10  4.84e-01    16s
  11   3.44802411e+08  3.45124034e+08  4.17e-10 1.28e-10  3.27e-01    17s
  12   3.44813649e+08  3.44967852e+08  1.62e-10 1.05e-10  1.57e-01    17s
  13   3.44819272e+08  3.44903507e+08  2.46e-10 1.08e-10  8.57e-02    17s
  14   3.44822044e+08  3.44879034e+08  1.33e-10 1.19e-10  5.80e-02    18s
  15   3.44823955e+08  3.44847800e+08  3.49e-10 1.14e-10  2.43e-02    18s
  16   3.44825266e+08  3.44840120e+08  1.40e-10 1.09e-10  1.51e-02    18s
  17   3.44825860e+08  3.44835018e+08  1.34e-10 1.12e-10  9.32e-03    18s
  18   3.44826283e+08  3.44831814e+08  2.29e-10 1.06e-10  5.63e-03    19s
  19   3.44826439e+08  3.44830166e+08  1.53e-10 1.16e-10  3.79e-03    19s
  20   3.44826621e+08  3.44828942e+08  1.33e-10 1.28e-10  2.36e-03    19s
  21   3.44826703e+08  3.44827842e+08  2.16e-10 1.20e-10  1.16e-03    20s
  22   3.44826756e+08  3.44827409e+08  2.76e-10 1.19e-10  6.66e-04    20s
  23   3.44826801e+08  3.44827118e+08  6.89e-10 1.06e-10  3.22e-04    20s
  24   3.44826825e+08  3.44827004e+08  4.31e-10 1.21e-10  1.82e-04    20s
  25   3.44826846e+08  3.44826881e+08  5.11e-10 9.66e-11  3.61e-05    21s
  26   3.44826848e+08  3.44826853e+08  4.57e-09 1.01e-10  5.58e-06    21s
  27   3.44826848e+08  3.44826850e+08  1.22e-09 1.10e-10  1.77e-06    21s
  28   3.44826848e+08  3.44826849e+08  2.35e-09 1.04e-10  5.74e-07    22s
  29   3.44826849e+08  3.44826849e+08  1.40e-09 1.05e-10  2.54e-07    22s
  30   3.44826849e+08  3.44826849e+08  2.42e-10 9.28e-11  4.29e-08    22s
  31   3.44826849e+08  3.44826849e+08  6.93e-10 9.66e-11  7.65e-09    23s

Barrier solved model in 31 iterations and 22.86 seconds (14.28 work units)
Optimal objective 3.44826849e+08


Root crossover log...

   12360 DPushes remaining with DInf 0.0000000e+00                23s
       0 DPushes remaining with DInf 0.0000000e+00                23s

   10022 PPushes remaining with PInf 2.8378870e-04                23s
     972 PPushes remaining with PInf 1.2442326e-05                25s
       0 PPushes remaining with PInf 0.0000000e+00                25s

  Push phase complete: Pinf 0.0000000e+00, Dinf 9.4530223e+04     25s


Root simplex log...

Iteration    Objective       Primal Inf.    Dual Inf.      Time
   21824    3.4482685e+08   0.000000e+00   9.452987e+04     25s
   27186    3.4482685e+08   0.000000e+00   0.000000e+00     28s
Crossover time: 5.22 seconds (3.21 work units)
Concurrent spin time: 0.70s

Solved with barrier

Root relaxation: objective 3.448268e+08, 27186 iterations, 18.29 seconds (10.45 work units)

    Nodes    |    Current Node    |     Objective Bounds      |     Work
 Expl Unexpl |  Obj  Depth IntInf | Incumbent    BestBd   Gap | It/Node Time

     0     0 3.4483e+08    0 4063 -3.706e+08 3.4483e+08   193%     -   30s
H    0     0                    2.050490e+08 3.4483e+08  68.2%     -   32s
H    0     0                    3.245482e+08 3.4483e+08  6.25%     -   32s
H    0     0                    3.245853e+08 3.4483e+08  6.24%     -   44s
H    0     0                    3.447581e+08 3.4483e+08  0.02%     -   47s

Explored 1 nodes (28384 simplex iterations) in 47.32 seconds (37.10 work units)
Thread count was 8 (of 8 available processors)

Solution count 4: 3.44758e+08 3.24585e+08 2.05049e+08 -3.70642e+08 

Optimal solution found (tolerance 5.00e-03)
Best objective 3.447581139941e+08, best bound 3.448268485770e+08, gap 0.0199%
